159
100000
193
36360
17366
79622
2087
19
7502
43375
37713
29564
54976
77340
33250
7985
40856
10434
90
95903
30134
19617
92498
774
35170
10145
10891
24397
16380
38098
77430
28692
69092
17265
2047
2046
43470
8469
19194
57205
17329
44692
52211
53289
69773
2757
39384
54637
47227
47875
29092
62967
51750
21758
18876
9
26498
43145
4790
30580
84066
80806
1353
7394
47226
44236
2398
51175
1271
94799
70436
4508
40765
20746
25505
11761
50897
5201
28821
32361
1162
65973
21853
50937
54031
48329
25244
90142
66621
57301
3300
38418
23481
56625
14062
1873
45024
82671
19733
10043
63640
4516
38030
67453
62287
31688
19216
37666
15934
95192
96249
21389
49120
28163
63902
64830
35398
16671
60229
63045
22570
129
50356
5200
91035
49063
26244
2410
79812
42400
8965
9691
65369
28644
49294
35078
64602
49644
73756
3751
4410
16131
17455
51093
36955
25272
10600
31166
34027
31350
81124
99807
57600
97954
99981
47908
4097
49105
59235
22557
50706
